unsat
(forall ((A (_ BitVec 4))
         (B (_ BitVec 1))
         (C (_ BitVec 1))
         (D (_ BitVec 1))
         (E (_ BitVec 2))
         (F (_ BitVec 16))
         (G (_ BitVec 3))
         (H (_ BitVec 1))
         (I (_ BitVec 1))
         (J (_ BitVec 20))
         (K (_ BitVec 18))
         (L (_ BitVec 3))
         (M (_ BitVec 30))
         (N (_ BitVec 1))
         (O (_ BitVec 1))
         (P (_ BitVec 4))
         (Q (_ BitVec 20))
         (R (_ BitVec 1))
         (S (_ BitVec 1))
         (T (_ BitVec 1))
         (U (_ BitVec 1))
         (V (_ BitVec 1))
         (W (_ BitVec 1))
         (X (_ BitVec 16))
         (Y (_ BitVec 1))
         (Z (_ BitVec 1))
         (A1 (_ BitVec 18))
         (B1 (_ BitVec 1))
         (C1 (_ BitVec 1))
         (D1 (_ BitVec 1))
         (E1 (_ BitVec 16))
         (F1 (_ BitVec 1))
         (G1 (_ BitVec 1))
         (H1 (_ BitVec 20))
         (I1 (_ BitVec 1))
         (J1 (_ BitVec 2))
         (K1 (_ BitVec 1))
         (L1 (_ BitVec 1))
         (M1 (_ BitVec 1))
         (N1 (_ BitVec 1))
         (O1 (_ BitVec 1))
         (P1 (_ BitVec 28))
         (Q1 (_ BitVec 1))
         (R1 (_ BitVec 32))
         (S1 (_ BitVec 18))
         (T1 (_ BitVec 1))
         (U1 (_ BitVec 32))
         (V1 (_ BitVec 1))
         (W1 (_ BitVec 16))
         (X1 (_ BitVec 1))
         (Y1 (_ BitVec 1))
         (Z1 (_ BitVec 1))
         (A2 (_ BitVec 20))
         (B2 (_ BitVec 18))
         (C2 (_ BitVec 18))
         (D2 (_ BitVec 1))
         (E2 (_ BitVec 1))
         (F2 (_ BitVec 1))
         (G2 (_ BitVec 20))
         (H2 (_ BitVec 4))
         (I2 (_ BitVec 1))
         (J2 (_ BitVec 6))
         (K2 (_ BitVec 1))
         (L2 (_ BitVec 1))
         (M2 (_ BitVec 1))
         (N2 (_ BitVec 3))
         (O2 (_ BitVec 1))
         (P2 (_ BitVec 1))
         (Q2 (_ BitVec 1))
         (R2 (_ BitVec 1))
         (S2 (_ BitVec 1))
         (T2 (_ BitVec 1))
         (U2 (_ BitVec 1))
         (V2 (_ BitVec 1))
         (W2 (_ BitVec 1))
         (X2 (_ BitVec 1))
         (Y2 (_ BitVec 1))
         (Z2 (_ BitVec 1))
         (A3 (_ BitVec 1))
         (B3 (_ BitVec 1))
         (C3 (_ BitVec 30))
         (D3 (_ BitVec 4))
         (E3 (_ BitVec 16))
         (F3 (_ BitVec 1))
         (G3 (_ BitVec 1))
         (H3 (_ BitVec 1))
         (I3 (_ BitVec 1))
         (J3 (_ BitVec 1))
         (K3 (_ BitVec 1))
         (L3 (_ BitVec 1))
         (M3 (_ BitVec 3))
         (N3 (_ BitVec 1))
         (O3 (_ BitVec 1))
         (P3 (_ BitVec 1))
         (Q3 (_ BitVec 1))
         (R3 (_ BitVec 1))
         (S3 (_ BitVec 1))
         (T3 (_ BitVec 1))
         (U3 (_ BitVec 1))
         (V3 (_ BitVec 4))
         (W3 (_ BitVec 1))
         (X3 (_ BitVec 1))
         (Y3 (_ BitVec 2))
         (Z3 (_ BitVec 4))
         (A4 (_ BitVec 4))
         (B4 (_ BitVec 1))
         (C4 (_ BitVec 1))
         (D4 (_ BitVec 28))
         (E4 (_ BitVec 32))
         (F4 (_ BitVec 1))
         (G4 (_ BitVec 1))
         (H4 (_ BitVec 1))
         (I4 (_ BitVec 1))
         (J4 (_ BitVec 1))
         (K4 (_ BitVec 1))
         (L4 (_ BitVec 30))
         (M4 (_ BitVec 1))
         (N4 (_ BitVec 32))
         (O4 (_ BitVec 4))
         (P4 (_ BitVec 1))
         (Q4 (_ BitVec 1))
         (R4 (_ BitVec 4))
         (S4 (_ BitVec 1))
         (T4 (_ BitVec 32)))
  (! (let ((a!1 (or (not (= A3 #b0)) (not (= ((_ extract 0 0) P) #b1)))))
     (let ((a!2 (and (or (not (= X1 #b0)) (not (= E3 #x0000)))
                     (= P2 #b1)
                     (or (= L2 #b0) (= (bvnot G1) E2))
                     (or (not (= S3 #b0)) (not (= B4 #b1)) (not (= G4 #b0)))
                     (or (= X1 #b1) (= (bvnot G1) E2))
                     (or (= K2 #b0) (= G4 #b1) (= H3 #b0))
                     (or (= R3 #b0) (not (= G1 #b0)))
                     a!1
                     (or (= E3 #x0000) (= B4 #b1) (not (= G1 #b1)) (= W3 #b1))
                     (or (not (= V #b1)) (not (= G1 #b0)))
                     (or (= R3 #b0) (= K2 #b0))
                     (or (not (= W3 #b0))
                         (not (= B4 #b0))
                         (not (= G1 #b1))
                         (not (= G4 #b0)))
                     (or (= E3 #x0000) (not (= X1 #b1)))
                     (or (not (= L2 #b1))
                         (not (= W3 #b0))
                         (not (= B4 #b0))
                         (not (= G1 #b1)))
                     (or (= G1 #b0) (= K2 #b0) (= E3 #x0000)))))
       (= (INV!slice!1 A
                       B
                       C
                       D
                       E
                       F
                       G
                       H
                       I
                       J
                       K
                       L
                       M
                       N
                       O
                       P
                       Q
                       R
                       S
                       T
                       U
                       V
                       W
                       X
                       Y
                       Z
                       A1
                       B1
                       C1
                       D1
                       E1
                       F1
                       G1
                       H1
                       I1
                       J1
                       K1
                       L1
                       M1
                       N1
                       O1
                       P1
                       Q1
                       R1
                       S1
                       T1
                       U1
                       V1
                       W1
                       X1
                       Y1
                       Z1
                       A2
                       B2
                       C2
                       D2
                       E2
                       F2
                       G2
                       H2
                       I2
                       J2
                       K2
                       L2
                       M2
                       N2
                       O2
                       P2
                       Q2
                       R2
                       S2
                       T2
                       U2
                       V2
                       W2
                       X2
                       Y2
                       Z2
                       A3
                       B3
                       C3
                       D3
                       E3
                       F3
                       G3
                       H3
                       I3
                       J3
                       K3
                       L3
                       M3
                       N3
                       O3
                       P3
                       Q3
                       R3
                       S3
                       T3
                       U3
                       V3
                       W3
                       X3
                       Y3
                       Z3
                       A4
                       B4
                       C4
                       D4
                       E4
                       F4
                       G4
                       H4
                       I4
                       J4
                       K4
                       L4
                       M4
                       N4
                       O4
                       P4
                       Q4
                       R4
                       S4
                       T4)
          a!2)))
     :weight 0))
